8848
1 0 1 1 0 1 1 0 0 1 
3 6 3 0 2 9 5 5 3 5 5 0 6 9 9 9 9 2 5 3 6 6 0 0 0 6 2 6 3 3 3 3 3 3 3 5 9 9 0 6 0 9 9 9 5 5 5 5 5 3 3 5 6 0 0 0 6 6 2 2 2 5 5 5 3 3 0 3 3 3 3 6 6 6 0 3 3 3 3 0 3 5 2 2 2 2 6 5 2 5 9 9 2 2 2 2 2 9 2 2 
